p cnf 12 50 
-6 -4 1 0
3 10 -2 0
-2 -5 11 0
-5 -11 -9 0
2 -10 -8 0
2 6 -5 0
-5 6 4 0
-8 -4 -9 0
-3 -1 -2 0
-6 -10 -2 0
6 8 -3 0
-4 -2 -5 0
3 -6 4 0
9 -4 -8 0
-3 7 -1 0
6 -3 12 0
11 -9 10 0
-1 -6 -7 0
-3 -2 -7 0
-12 3 -11 0
3 -10 11 0
3 -1 5 0
-2 -11 -3 0
-5 -12 10 0
8 6 11 0
3 -11 4 0
1 12 3 0
10 12 6 0
1 10 -9 0
-10 -7 -4 0
9 1 7 0
-8 -2 5 0
3 -6 -2 0
10 -8 -1 0
-1 5 -12 0
-1 8 -9 0
7 9 2 0
-9 -12 -4 0
-8 -3 6 0
9 -1 6 0
9 8 -3 0
-2 8 -12 0
2 12 -11 0
12 -8 -11 0
-7 -6 12 0
2 -7 9 0
10 1 6 0
-12 -4 -9 0
-3 -1 5 0
9 4 -6 0
